\Problem name: compact

Minimize
OBJROW: C
Subject To
ord(0,1):  x(0,0) - x(0,1) >= 4
ord(0,2):  - x(0,0) + x(0,2) >= 4
ord(1,1):  x(1,1) - x(1,2) >= 5
ord(1,2):  x(1,0) - x(1,1) >= 10
ord(2,1):  - x(2,1) + x(2,2) >= 3
ord(2,2):  x(2,0) - x(2,2) >= 3
triangle2(0,1,0):  y(0,1,0) + y(1,0,0) = 1
triangle2(0,1,1):  y(0,1,1) + y(1,0,1) = 1
triangle2(0,1,2):  y(0,1,2) + y(1,0,2) = 1
triangle2(0,2,0):  y(0,2,0) + y(2,0,0) = 1
triangle2(0,2,1):  y(0,2,1) + y(2,0,1) = 1
triangle2(0,2,2):  y(0,2,2) + y(2,0,2) = 1
triangle2(1,2,0):  y(1,2,0) + y(2,1,0) = 1
triangle2(1,2,1):  y(1,2,1) + y(2,1,1) = 1
triangle2(1,2,2):  y(1,2,2) + y(2,1,2) = 1
MCLinV(0,1,0):  x(0,0) - v(0,1,0) - x(1,0) = 9
MCLinV(1,0,0):  - x(0,0) - v(1,0,0) + x(1,0) = 4
MCLin1(0,1,0):  u(0,1,0) >= -0
MCLin2(0,1,0):  -41 y(1,0,0) - u(0,1,0) <= -0
MCLin3(0,1,0):  12 y(1,0,0) + v(0,1,0) - u(0,1,0) <= 12
MCLin4(0,1,0):  12 y(1,0,0) - u(0,1,0) >= -0
MCLin5(0,1,0):  -41 y(1,0,0) + v(0,1,0) - u(0,1,0) >= -41
MCLin6(1,0,0):  u(1,0,0) >= -0
MCLin7(1,0,0):  -25 y(0,1,0) - u(1,0,0) <= -0
MCLin8(1,0,0):  28 y(0,1,0) + v(1,0,0) - u(1,0,0) <= 28
MCLin9(1,0,0):  28 y(0,1,0) - u(1,0,0) >= -0
MCLin10(1,0,0):  -25 y(0,1,0) + v(1,0,0) - u(1,0,0) >= -25
MCLinV(0,1,1):  x(0,1) - v(0,1,1) - x(1,1) = 10
MCLinV(1,0,1):  - x(0,1) - v(1,0,1) + x(1,1) = 4
MCLin1(0,1,1):  u(0,1,1) >= -0
MCLin2(0,1,1):  -36 y(1,0,1) - u(0,1,1) <= -0
MCLin3(0,1,1):  17 y(1,0,1) + v(0,1,1) - u(0,1,1) <= 17
MCLin4(0,1,1):  17 y(1,0,1) - u(0,1,1) >= -0
MCLin5(0,1,1):  -36 y(1,0,1) + v(0,1,1) - u(0,1,1) >= -36
MCLin6(1,0,1):  u(1,0,1) >= -0
MCLin7(1,0,1):  -31 y(0,1,1) - u(1,0,1) <= -0
MCLin8(1,0,1):  22 y(0,1,1) + v(1,0,1) - u(1,0,1) <= 22
MCLin9(1,0,1):  22 y(0,1,1) - u(1,0,1) >= -0
MCLin10(1,0,1):  -31 y(0,1,1) + v(1,0,1) - u(1,0,1) >= -31
MCLinV(0,1,2):  x(0,2) - v(0,1,2) - x(1,2) = 5
MCLinV(1,0,2):  - x(0,2) - v(1,0,2) + x(1,2) = 5
MCLin1(0,1,2):  u(0,1,2) >= -0
MCLin2(0,1,2):  -18 y(1,0,2) - u(0,1,2) <= -0
MCLin3(0,1,2):  35 y(1,0,2) + v(0,1,2) - u(0,1,2) <= 35
MCLin4(0,1,2):  35 y(1,0,2) - u(0,1,2) >= -0
MCLin5(0,1,2):  -18 y(1,0,2) + v(0,1,2) - u(0,1,2) >= -18
MCLin6(1,0,2):  u(1,0,2) >= -0
MCLin7(1,0,2):  -45 y(0,1,2) - u(1,0,2) <= -0
MCLin8(1,0,2):  8 y(0,1,2) + v(1,0,2) - u(1,0,2) <= 8
MCLin9(1,0,2):  8 y(0,1,2) - u(1,0,2) >= -0
MCLin10(1,0,2):  -45 y(0,1,2) + v(1,0,2) - u(1,0,2) >= -45
MCLinV(0,2,0):  x(0,0) - v(0,2,0) - x(2,0) = 2
MCLinV(2,0,0):  - x(0,0) - v(2,0,0) + x(2,0) = 4
MCLin1(0,2,0):  u(0,2,0) >= -0
MCLin2(0,2,0):  -41 y(2,0,0) - u(0,2,0) <= -0
MCLin3(0,2,0):  28 y(2,0,0) + v(0,2,0) - u(0,2,0) <= 28
MCLin4(0,2,0):  28 y(2,0,0) - u(0,2,0) >= -0
MCLin5(0,2,0):  -41 y(2,0,0) + v(0,2,0) - u(0,2,0) >= -41
MCLin6(2,0,0):  u(2,0,0) >= -0
MCLin7(2,0,0):  -34 y(0,2,0) - u(2,0,0) <= -0
MCLin8(2,0,0):  35 y(0,2,0) + v(2,0,0) - u(2,0,0) <= 35
MCLin9(2,0,0):  35 y(0,2,0) - u(2,0,0) >= -0
MCLin10(2,0,0):  -34 y(0,2,0) + v(2,0,0) - u(2,0,0) >= -34
MCLinV(0,2,1):  x(0,1) - v(0,2,1) - x(2,1) = 3
MCLinV(2,0,1):  - x(0,1) - v(2,0,1) + x(2,1) = 4
MCLin1(0,2,1):  u(0,2,1) >= -0
MCLin2(0,2,1):  -40 y(2,0,1) - u(0,2,1) <= -0
MCLin3(0,2,1):  29 y(2,0,1) + v(0,2,1) - u(0,2,1) <= 29
MCLin4(0,2,1):  29 y(2,0,1) - u(0,2,1) >= -0
MCLin5(0,2,1):  -40 y(2,0,1) + v(0,2,1) - u(0,2,1) >= -40
MCLin6(2,0,1):  u(2,0,1) >= -0
MCLin7(2,0,1):  -36 y(0,2,1) - u(2,0,1) <= -0
MCLin8(2,0,1):  33 y(0,2,1) + v(2,0,1) - u(2,0,1) <= 33
MCLin9(2,0,1):  33 y(0,2,1) - u(2,0,1) >= -0
MCLin10(2,0,1):  -36 y(0,2,1) + v(2,0,1) - u(2,0,1) >= -36
MCLinV(0,2,2):  x(0,2) - v(0,2,2) - x(2,2) = 3
MCLinV(2,0,2):  - x(0,2) - v(2,0,2) + x(2,2) = 5
MCLin1(0,2,2):  u(0,2,2) >= -0
MCLin2(0,2,2):  -35 y(2,0,2) - u(0,2,2) <= -0
MCLin3(0,2,2):  34 y(2,0,2) + v(0,2,2) - u(0,2,2) <= 34
MCLin4(0,2,2):  34 y(2,0,2) - u(0,2,2) >= -0
MCLin5(0,2,2):  -35 y(2,0,2) + v(0,2,2) - u(0,2,2) >= -35
MCLin6(2,0,2):  u(2,0,2) >= -0
MCLin7(2,0,2):  -42 y(0,2,2) - u(2,0,2) <= -0
MCLin8(2,0,2):  27 y(0,2,2) + v(2,0,2) - u(2,0,2) <= 27
MCLin9(2,0,2):  27 y(0,2,2) - u(2,0,2) >= -0
MCLin10(2,0,2):  -42 y(0,2,2) + v(2,0,2) - u(2,0,2) >= -42
MCLinV(1,2,0):  x(1,0) - v(1,2,0) - x(2,0) = 2
MCLinV(2,1,0):  - x(1,0) - v(2,1,0) + x(2,0) = 9
MCLin1(1,2,0):  u(1,2,0) >= -0
MCLin2(1,2,0):  -30 y(2,1,0) - u(1,2,0) <= -0
MCLin3(1,2,0):  28 y(2,1,0) + v(1,2,0) - u(1,2,0) <= 28
MCLin4(1,2,0):  28 y(2,1,0) - u(1,2,0) >= -0
MCLin5(1,2,0):  -30 y(2,1,0) + v(1,2,0) - u(1,2,0) >= -30
MCLin6(2,1,0):  u(2,1,0) >= -0
MCLin7(2,1,0):  -39 y(1,2,0) - u(2,1,0) <= -0
MCLin8(2,1,0):  19 y(1,2,0) + v(2,1,0) - u(2,1,0) <= 19
MCLin9(2,1,0):  19 y(1,2,0) - u(2,1,0) >= -0
MCLin10(2,1,0):  -39 y(1,2,0) + v(2,1,0) - u(2,1,0) >= -39
MCLinV(1,2,1):  x(1,1) - v(1,2,1) - x(2,1) = 3
MCLinV(2,1,1):  - x(1,1) - v(2,1,1) + x(2,1) = 10
MCLin1(1,2,1):  u(1,2,1) >= -0
MCLin2(1,2,1):  -35 y(2,1,1) - u(1,2,1) <= -0
MCLin3(1,2,1):  23 y(2,1,1) + v(1,2,1) - u(1,2,1) <= 23
MCLin4(1,2,1):  23 y(2,1,1) - u(1,2,1) >= -0
MCLin5(1,2,1):  -35 y(2,1,1) + v(1,2,1) - u(1,2,1) >= -35
MCLin6(2,1,1):  u(2,1,1) >= -0
MCLin7(2,1,1):  -36 y(1,2,1) - u(2,1,1) <= -0
MCLin8(2,1,1):  22 y(1,2,1) + v(2,1,1) - u(2,1,1) <= 22
MCLin9(2,1,1):  22 y(1,2,1) - u(2,1,1) >= -0
MCLin10(2,1,1):  -36 y(1,2,1) + v(2,1,1) - u(2,1,1) >= -36
MCLinV(1,2,2):  x(1,2) - v(1,2,2) - x(2,2) = 3
MCLinV(2,1,2):  - x(1,2) - v(2,1,2) + x(2,2) = 5
MCLin1(1,2,2):  u(1,2,2) >= -0
MCLin2(1,2,2):  -43 y(2,1,2) - u(1,2,2) <= -0
MCLin3(1,2,2):  15 y(2,1,2) + v(1,2,2) - u(1,2,2) <= 15
MCLin4(1,2,2):  15 y(2,1,2) - u(1,2,2) >= -0
MCLin5(1,2,2):  -43 y(2,1,2) + v(1,2,2) - u(1,2,2) >= -43
MCLin6(2,1,2):  u(2,1,2) >= -0
MCLin7(2,1,2):  -23 y(1,2,2) - u(2,1,2) <= -0
MCLin8(2,1,2):  35 y(1,2,2) + v(2,1,2) - u(2,1,2) <= 35
MCLin9(2,1,2):  35 y(1,2,2) - u(2,1,2) >= -0
MCLin10(2,1,2):  -23 y(1,2,2) + v(2,1,2) - u(2,1,2) >= -23
makespan(0):  C - x(0,2) >= 5
makespan(1):  C - x(1,0) >= 9
makespan(2):  C - x(2,0) >= 2
Bounds
 0 <= C <= 45
 4 <= x(0,0) <= 36
 0 <= y(0,1,0) <= 1
 0 <= y(1,0,0) <= 1
 -41 <= v(0,1,0) <= 12
 -25 <= v(1,0,0) <= 28
 -450 <= u(0,1,0)
 -450 <= u(1,0,0)
 0 <= y(0,2,0) <= 1
 0 <= y(2,0,0) <= 1
 -41 <= v(0,2,0) <= 28
 -34 <= v(2,0,0) <= 35
 -450 <= u(0,2,0)
 -450 <= u(2,0,0)
 15 <= x(1,0) <= 36
 0 <= y(1,2,0) <= 1
 0 <= y(2,1,0) <= 1
 -30 <= v(1,2,0) <= 28
 -39 <= v(2,1,0) <= 19
 -450 <= u(1,2,0)
 -450 <= u(2,1,0)
 6 <= x(2,0) <= 43
 0 <= x(0,1) <= 32
 0 <= y(0,1,1) <= 1
 0 <= y(1,0,1) <= 1
 -36 <= v(0,1,1) <= 17
 -31 <= v(1,0,1) <= 22
 -450 <= u(0,1,1)
 -450 <= u(1,0,1)
 0 <= y(0,2,1) <= 1
 0 <= y(2,0,1) <= 1
 -40 <= v(0,2,1) <= 29
 -36 <= v(2,0,1) <= 33
 -450 <= u(0,2,1)
 -450 <= u(2,0,1)
 5 <= x(1,1) <= 26
 0 <= y(1,2,1) <= 1
 0 <= y(2,1,1) <= 1
 -35 <= v(1,2,1) <= 23
 -36 <= v(2,1,1) <= 22
 -450 <= u(1,2,1)
 -450 <= u(2,1,1)
 0 <= x(2,1) <= 37
 8 <= x(0,2) <= 40
 0 <= y(0,1,2) <= 1
 0 <= y(1,0,2) <= 1
 -18 <= v(0,1,2) <= 35
 -45 <= v(1,0,2) <= 8
 -450 <= u(0,1,2)
 -450 <= u(1,0,2)
 0 <= y(0,2,2) <= 1
 0 <= y(2,0,2) <= 1
 -35 <= v(0,2,2) <= 34
 -42 <= v(2,0,2) <= 27
 -450 <= u(0,2,2)
 -450 <= u(2,0,2)
 0 <= x(1,2) <= 21
 0 <= y(1,2,2) <= 1
 0 <= y(2,1,2) <= 1
 -43 <= v(1,2,2) <= 15
 -23 <= v(2,1,2) <= 35
 -450 <= u(1,2,2)
 -450 <= u(2,1,2)
 3 <= x(2,2) <= 40
Integers
C x(0,0) y(0,1,0) y(1,0,0) v(0,1,0) v(1,0,0) u(0,1,0) u(1,0,0) y(0,2,0) y(2,0,0) 
v(0,2,0) v(2,0,0) u(0,2,0) u(2,0,0) x(1,0) y(1,2,0) y(2,1,0) v(1,2,0) v(2,1,0) u(1,2,0) 
u(2,1,0) x(2,0) x(0,1) y(0,1,1) y(1,0,1) v(0,1,1) v(1,0,1) u(0,1,1) u(1,0,1) y(0,2,1) 
y(2,0,1) v(0,2,1) v(2,0,1) u(0,2,1) u(2,0,1) x(1,1) y(1,2,1) y(2,1,1) v(1,2,1) v(2,1,1) 
u(1,2,1) u(2,1,1) x(2,1) x(0,2) y(0,1,2) y(1,0,2) v(0,1,2) v(1,0,2) u(0,1,2) u(1,0,2) 
y(0,2,2) y(2,0,2) v(0,2,2) v(2,0,2) u(0,2,2) u(2,0,2) x(1,2) y(1,2,2) y(2,1,2) v(1,2,2) 
v(2,1,2) u(1,2,2) u(2,1,2) x(2,2) 
End
